(set-logic QF_LRA)
(declare-fun X0 () Real )
(declare-fun Y0 () Real )
(declare-fun X1 () Real )
(declare-fun Y1 () Real )
(declare-fun X2 () Real )
(declare-fun Y2 () Real )
(declare-fun X3 () Real )
(declare-fun Y3 () Real )
(declare-fun X4 () Real )
(declare-fun Y4 () Real )
(declare-fun X5 () Real )
(declare-fun Y5 () Real )
(declare-fun X6 () Real )
(declare-fun Y6 () Real )
(declare-fun X7 () Real )
(declare-fun Y7 () Real )
(declare-fun X8 () Real )
(declare-fun Y8 () Real )
(declare-fun X9 () Real )
(declare-fun Y9 () Real )
(declare-fun X10 () Real )
(declare-fun Y10 () Real )
(declare-fun X11 () Real )
(declare-fun Y11 () Real )
(declare-fun Z () Real )
(declare-fun k () Real )
(assert (let
(( $goal (>= Z k) ))
(let
((
$phi ( and 
( or ( <= ( + X0 75 ) X1 )  ( <= ( + X1 14 ) X0 )  ( <= ( + Y0 75 ) Y1 )  ( <= ( + Y1 31 ) Y0 )  )
( or ( <= ( + X0 75 ) X2 )  ( <= ( + X2 72 ) X0 )  ( <= ( + Y0 75 ) Y2 )  ( <= ( + Y2 64 ) Y0 )  )
( or ( <= ( + X0 75 ) X3 )  ( <= ( + X3 69 ) X0 )  ( <= ( + Y0 75 ) Y3 )  ( <= ( + Y3 36 ) Y0 )  )
( or ( <= ( + X0 75 ) X4 )  ( <= ( + X4 55 ) X0 )  ( <= ( + Y0 75 ) Y4 )  ( <= ( + Y4 74 ) Y0 )  )
( or ( <= ( + X0 75 ) X5 )  ( <= ( + X5 87 ) X0 )  ( <= ( + Y0 75 ) Y5 )  ( <= ( + Y5 59 ) Y0 )  )
( or ( <= ( + X0 75 ) X6 )  ( <= ( + X6 9 ) X0 )  ( <= ( + Y0 75 ) Y6 )  ( <= ( + Y6 8 ) Y0 )  )
( or ( <= ( + X0 75 ) X7 )  ( <= ( + X7 19 ) X0 )  ( <= ( + Y0 75 ) Y7 )  ( <= ( + Y7 7 ) Y0 )  )
( or ( <= ( + X0 75 ) X8 )  ( <= ( + X8 38 ) X0 )  ( <= ( + Y0 75 ) Y8 )  ( <= ( + Y8 66 ) Y0 )  )
( or ( <= ( + X0 75 ) X9 )  ( <= ( + X9 61 ) X0 )  ( <= ( + Y0 75 ) Y9 )  ( <= ( + Y9 34 ) Y0 )  )
( or ( <= ( + X0 75 ) X10 )  ( <= ( + X10 17 ) X0 )  ( <= ( + Y0 75 ) Y10 )  ( <= ( + Y10 69 ) Y0 )  )
( or ( <= ( + X0 75 ) X11 )  ( <= ( + X11 35 ) X0 )  ( <= ( + Y0 75 ) Y11 )  ( <= ( + Y11 55 ) Y0 )  )
( or ( <= ( + X1 14 ) X2 )  ( <= ( + X2 72 ) X1 )  ( <= ( + Y1 31 ) Y2 )  ( <= ( + Y2 64 ) Y1 )  )
( or ( <= ( + X1 14 ) X3 )  ( <= ( + X3 69 ) X1 )  ( <= ( + Y1 31 ) Y3 )  ( <= ( + Y3 36 ) Y1 )  )
( or ( <= ( + X1 14 ) X4 )  ( <= ( + X4 55 ) X1 )  ( <= ( + Y1 31 ) Y4 )  ( <= ( + Y4 74 ) Y1 )  )
( or ( <= ( + X1 14 ) X5 )  ( <= ( + X5 87 ) X1 )  ( <= ( + Y1 31 ) Y5 )  ( <= ( + Y5 59 ) Y1 )  )
( or ( <= ( + X1 14 ) X6 )  ( <= ( + X6 9 ) X1 )  ( <= ( + Y1 31 ) Y6 )  ( <= ( + Y6 8 ) Y1 )  )
( or ( <= ( + X1 14 ) X7 )  ( <= ( + X7 19 ) X1 )  ( <= ( + Y1 31 ) Y7 )  ( <= ( + Y7 7 ) Y1 )  )
( or ( <= ( + X1 14 ) X8 )  ( <= ( + X8 38 ) X1 )  ( <= ( + Y1 31 ) Y8 )  ( <= ( + Y8 66 ) Y1 )  )
( or ( <= ( + X1 14 ) X9 )  ( <= ( + X9 61 ) X1 )  ( <= ( + Y1 31 ) Y9 )  ( <= ( + Y9 34 ) Y1 )  )
( or ( <= ( + X1 14 ) X10 )  ( <= ( + X10 17 ) X1 )  ( <= ( + Y1 31 ) Y10 )  ( <= ( + Y10 69 ) Y1 )  )
( or ( <= ( + X1 14 ) X11 )  ( <= ( + X11 35 ) X1 )  ( <= ( + Y1 31 ) Y11 )  ( <= ( + Y11 55 ) Y1 )  )
( or ( <= ( + X2 72 ) X3 )  ( <= ( + X3 69 ) X2 )  ( <= ( + Y2 64 ) Y3 )  ( <= ( + Y3 36 ) Y2 )  )
( or ( <= ( + X2 72 ) X4 )  ( <= ( + X4 55 ) X2 )  ( <= ( + Y2 64 ) Y4 )  ( <= ( + Y4 74 ) Y2 )  )
( or ( <= ( + X2 72 ) X5 )  ( <= ( + X5 87 ) X2 )  ( <= ( + Y2 64 ) Y5 )  ( <= ( + Y5 59 ) Y2 )  )
( or ( <= ( + X2 72 ) X6 )  ( <= ( + X6 9 ) X2 )  ( <= ( + Y2 64 ) Y6 )  ( <= ( + Y6 8 ) Y2 )  )
( or ( <= ( + X2 72 ) X7 )  ( <= ( + X7 19 ) X2 )  ( <= ( + Y2 64 ) Y7 )  ( <= ( + Y7 7 ) Y2 )  )
( or ( <= ( + X2 72 ) X8 )  ( <= ( + X8 38 ) X2 )  ( <= ( + Y2 64 ) Y8 )  ( <= ( + Y8 66 ) Y2 )  )
( or ( <= ( + X2 72 ) X9 )  ( <= ( + X9 61 ) X2 )  ( <= ( + Y2 64 ) Y9 )  ( <= ( + Y9 34 ) Y2 )  )
( or ( <= ( + X2 72 ) X10 )  ( <= ( + X10 17 ) X2 )  ( <= ( + Y2 64 ) Y10 )  ( <= ( + Y10 69 ) Y2 )  )
( or ( <= ( + X2 72 ) X11 )  ( <= ( + X11 35 ) X2 )  ( <= ( + Y2 64 ) Y11 )  ( <= ( + Y11 55 ) Y2 )  )
( or ( <= ( + X3 69 ) X4 )  ( <= ( + X4 55 ) X3 )  ( <= ( + Y3 36 ) Y4 )  ( <= ( + Y4 74 ) Y3 )  )
( or ( <= ( + X3 69 ) X5 )  ( <= ( + X5 87 ) X3 )  ( <= ( + Y3 36 ) Y5 )  ( <= ( + Y5 59 ) Y3 )  )
( or ( <= ( + X3 69 ) X6 )  ( <= ( + X6 9 ) X3 )  ( <= ( + Y3 36 ) Y6 )  ( <= ( + Y6 8 ) Y3 )  )
( or ( <= ( + X3 69 ) X7 )  ( <= ( + X7 19 ) X3 )  ( <= ( + Y3 36 ) Y7 )  ( <= ( + Y7 7 ) Y3 )  )
( or ( <= ( + X3 69 ) X8 )  ( <= ( + X8 38 ) X3 )  ( <= ( + Y3 36 ) Y8 )  ( <= ( + Y8 66 ) Y3 )  )
( or ( <= ( + X3 69 ) X9 )  ( <= ( + X9 61 ) X3 )  ( <= ( + Y3 36 ) Y9 )  ( <= ( + Y9 34 ) Y3 )  )
( or ( <= ( + X3 69 ) X10 )  ( <= ( + X10 17 ) X3 )  ( <= ( + Y3 36 ) Y10 )  ( <= ( + Y10 69 ) Y3 )  )
( or ( <= ( + X3 69 ) X11 )  ( <= ( + X11 35 ) X3 )  ( <= ( + Y3 36 ) Y11 )  ( <= ( + Y11 55 ) Y3 )  )
( or ( <= ( + X4 55 ) X5 )  ( <= ( + X5 87 ) X4 )  ( <= ( + Y4 74 ) Y5 )  ( <= ( + Y5 59 ) Y4 )  )
( or ( <= ( + X4 55 ) X6 )  ( <= ( + X6 9 ) X4 )  ( <= ( + Y4 74 ) Y6 )  ( <= ( + Y6 8 ) Y4 )  )
( or ( <= ( + X4 55 ) X7 )  ( <= ( + X7 19 ) X4 )  ( <= ( + Y4 74 ) Y7 )  ( <= ( + Y7 7 ) Y4 )  )
( or ( <= ( + X4 55 ) X8 )  ( <= ( + X8 38 ) X4 )  ( <= ( + Y4 74 ) Y8 )  ( <= ( + Y8 66 ) Y4 )  )
( or ( <= ( + X4 55 ) X9 )  ( <= ( + X9 61 ) X4 )  ( <= ( + Y4 74 ) Y9 )  ( <= ( + Y9 34 ) Y4 )  )
( or ( <= ( + X4 55 ) X10 )  ( <= ( + X10 17 ) X4 )  ( <= ( + Y4 74 ) Y10 )  ( <= ( + Y10 69 ) Y4 )  )
( or ( <= ( + X4 55 ) X11 )  ( <= ( + X11 35 ) X4 )  ( <= ( + Y4 74 ) Y11 )  ( <= ( + Y11 55 ) Y4 )  )
( or ( <= ( + X5 87 ) X6 )  ( <= ( + X6 9 ) X5 )  ( <= ( + Y5 59 ) Y6 )  ( <= ( + Y6 8 ) Y5 )  )
( or ( <= ( + X5 87 ) X7 )  ( <= ( + X7 19 ) X5 )  ( <= ( + Y5 59 ) Y7 )  ( <= ( + Y7 7 ) Y5 )  )
( or ( <= ( + X5 87 ) X8 )  ( <= ( + X8 38 ) X5 )  ( <= ( + Y5 59 ) Y8 )  ( <= ( + Y8 66 ) Y5 )  )
( or ( <= ( + X5 87 ) X9 )  ( <= ( + X9 61 ) X5 )  ( <= ( + Y5 59 ) Y9 )  ( <= ( + Y9 34 ) Y5 )  )
( or ( <= ( + X5 87 ) X10 )  ( <= ( + X10 17 ) X5 )  ( <= ( + Y5 59 ) Y10 )  ( <= ( + Y10 69 ) Y5 )  )
( or ( <= ( + X5 87 ) X11 )  ( <= ( + X11 35 ) X5 )  ( <= ( + Y5 59 ) Y11 )  ( <= ( + Y11 55 ) Y5 )  )
( or ( <= ( + X6 9 ) X7 )  ( <= ( + X7 19 ) X6 )  ( <= ( + Y6 8 ) Y7 )  ( <= ( + Y7 7 ) Y6 )  )
( or ( <= ( + X6 9 ) X8 )  ( <= ( + X8 38 ) X6 )  ( <= ( + Y6 8 ) Y8 )  ( <= ( + Y8 66 ) Y6 )  )
( or ( <= ( + X6 9 ) X9 )  ( <= ( + X9 61 ) X6 )  ( <= ( + Y6 8 ) Y9 )  ( <= ( + Y9 34 ) Y6 )  )
( or ( <= ( + X6 9 ) X10 )  ( <= ( + X10 17 ) X6 )  ( <= ( + Y6 8 ) Y10 )  ( <= ( + Y10 69 ) Y6 )  )
( or ( <= ( + X6 9 ) X11 )  ( <= ( + X11 35 ) X6 )  ( <= ( + Y6 8 ) Y11 )  ( <= ( + Y11 55 ) Y6 )  )
( or ( <= ( + X7 19 ) X8 )  ( <= ( + X8 38 ) X7 )  ( <= ( + Y7 7 ) Y8 )  ( <= ( + Y8 66 ) Y7 )  )
( or ( <= ( + X7 19 ) X9 )  ( <= ( + X9 61 ) X7 )  ( <= ( + Y7 7 ) Y9 )  ( <= ( + Y9 34 ) Y7 )  )
( or ( <= ( + X7 19 ) X10 )  ( <= ( + X10 17 ) X7 )  ( <= ( + Y7 7 ) Y10 )  ( <= ( + Y10 69 ) Y7 )  )
( or ( <= ( + X7 19 ) X11 )  ( <= ( + X11 35 ) X7 )  ( <= ( + Y7 7 ) Y11 )  ( <= ( + Y11 55 ) Y7 )  )
( or ( <= ( + X8 38 ) X9 )  ( <= ( + X9 61 ) X8 )  ( <= ( + Y8 66 ) Y9 )  ( <= ( + Y9 34 ) Y8 )  )
( or ( <= ( + X8 38 ) X10 )  ( <= ( + X10 17 ) X8 )  ( <= ( + Y8 66 ) Y10 )  ( <= ( + Y10 69 ) Y8 )  )
( or ( <= ( + X8 38 ) X11 )  ( <= ( + X11 35 ) X8 )  ( <= ( + Y8 66 ) Y11 )  ( <= ( + Y11 55 ) Y8 )  )
( or ( <= ( + X9 61 ) X10 )  ( <= ( + X10 17 ) X9 )  ( <= ( + Y9 34 ) Y10 )  ( <= ( + Y10 69 ) Y9 )  )
( or ( <= ( + X9 61 ) X11 )  ( <= ( + X11 35 ) X9 )  ( <= ( + Y9 34 ) Y11 )  ( <= ( + Y11 55 ) Y9 )  )
( or ( <= ( + X10 17 ) X11 )  ( <= ( + X11 35 ) X10 )  ( <= ( + Y10 69 ) Y11 )  ( <= ( + Y11 55 ) Y10 )  )
( >= X0 0)
( <= ( + X0 75) Z)
( >= Y0 0)
( <= ( + Y0 75 ) 100)
( >= X1 0)
( <= ( + X1 14) Z)
( >= Y1 0)
( <= ( + Y1 31 ) 100)
( >= X2 0)
( <= ( + X2 72) Z)
( >= Y2 0)
( <= ( + Y2 64 ) 100)
( >= X3 0)
( <= ( + X3 69) Z)
( >= Y3 0)
( <= ( + Y3 36 ) 100)
( >= X4 0)
( <= ( + X4 55) Z)
( >= Y4 0)
( <= ( + Y4 74 ) 100)
( >= X5 0)
( <= ( + X5 87) Z)
( >= Y5 0)
( <= ( + Y5 59 ) 100)
( >= X6 0)
( <= ( + X6 9) Z)
( >= Y6 0)
( <= ( + Y6 8 ) 100)
( >= X7 0)
( <= ( + X7 19) Z)
( >= Y7 0)
( <= ( + Y7 7 ) 100)
( >= X8 0)
( <= ( + X8 38) Z)
( >= Y8 0)
( <= ( + Y8 66 ) 100)
( >= X9 0)
( <= ( + X9 61) Z)
( >= Y9 0)
( <= ( + Y9 34 ) 100)
( >= X10 0)
( <= ( + X10 17) Z)
( >= Y10 0)
( <= ( + Y10 69 ) 100)
( >= X11 0)
( <= ( + X11 35) Z)
( >= Y11 0)
( <= ( + Y11 55 ) 100)
) )
)(=> $phi $goal))))